100 8
539 561
101 460
676 239
455 825
446 488
831 395
284 439
884 584
96 436
158 313
124 331
308 832
811 509
842 538
752 231
358 434
847 403
369 686
630 160
365 690
519 786
804 927
495 401
749 301
711 103
286 343
376 663
727 411
662 260
956 441
514 554
684 129
698 211
721 856
483 747
827 601
466 828
100 425
348 540
693 232
690 293
913 415
130 445
294 358
538 770
313 821
362 784
229 788
489 702
952 631
532 720
595 108
639 98
433 851
883 520
550 874
700 706
415 630
821 468
267 758
303 777
310 834
316 767
909 435
680 248
251 616
774 219
615 158
607 180
740 459
652 80
374 732
859 923
594 180
652 679
298 853
815 473
974 612
384 470
770 182
613 722
799 159
403 392
919 511
863 509
402 708
620 781
272 418
501 879
509 726
628 273
671 240
150 374
784 860
902 780
359 609
316 868
629 791
294 729
550 856
